%mem=800mw
%nprocshared=1
# OLYP/Gen charge nosymm nmr(printeigenvectors) integral(grid=ultrafine)

 AF-NMR fragment for residue    3; version = 5.4.beta1; nbcut =  3.30

   1   1
C        48.3930  -87.2460    6.3650
O        48.1990  -86.5060    7.3320
N        48.3410  -86.8330    5.0970
H        48.4740  -87.4840    4.3790
C        48.0490  -85.4510    4.7320
H        47.6590  -84.9290    5.5970
C        49.3150  -84.7250    4.2580
H        49.0630  -83.6960    4.0430
C        50.3620  -84.7540    5.3760
H        49.9660  -84.2640    6.2530
H        51.2540  -84.2400    5.0490
H        50.6060  -85.7790    5.6170
C        49.8950  -85.3980    3.0090
H        50.3330  -86.3460    3.2820
H        49.1120  -85.5580    2.2860
C        50.9690  -84.4990    2.3890
H        50.4970  -83.7460    1.7790
H        51.6270  -85.0970    1.7770
H        51.5430  -84.0210    3.1720
N        52.9230  -90.0160    8.5090
H        52.7210  -91.0190    8.3280
H        53.5810  -89.9330    9.3110
H        53.3520  -89.5920    7.6630
C        51.6530  -89.3040    8.8330
H        51.0730  -89.9040    9.5190
C        51.9760  -87.9580    9.4850
H        51.0580  -87.4210    9.6740
H        52.4920  -88.1230   10.4160
C        52.8640  -87.1310    8.5570
H        53.7460  -87.7000    8.3020
H        52.3190  -86.8870    7.6570
S        53.3550  -85.6060    9.4030
C        53.3590  -84.5240    7.9540
H        53.9850  -84.9560    7.1850
H        53.7450  -83.5550    8.2280
H        52.3480  -84.4150    7.5850
C        50.8510  -89.0860    7.5560
O        51.4140  -89.0330    6.4620
N        49.5350  -88.9530    7.6980
H        49.1450  -89.0060    8.5950
C        48.6640  -88.7330    6.5440
H        49.1390  -89.1250    5.6570
C        47.3220  -89.4450    6.7390
H        46.9170  -89.1860    7.7060
H        46.6350  -89.1300    5.9670
C        47.5060  -90.9600    6.6580
H        48.2990  -91.2630    7.3240
H        46.5860  -91.4460    6.9480
C        47.8560  -91.3690    5.2340
O        47.6050  -90.6180    4.2940
N        48.4030  -92.5310    5.0170
H        48.5910  -93.1320    5.7670
H        48.6170  -92.8060    4.1030
C        46.9700  -85.4580    3.6490
O        46.7040  -86.4990    3.0430
N        46.3570  -84.2950    3.3990
H        46.6270  -83.4900    3.8770
C        45.3090  -84.1920    2.3720
H        45.2110  -85.1390    1.8630
C        43.9700  -83.8450    3.0250
H        44.0620  -82.9110    3.5560
H        43.2150  -83.7430    2.2660
C        43.5690  -84.9340    3.9930
C        42.9830  -86.1120    3.5130
H        42.8260  -86.2430    2.4530
C        42.6010  -87.1190    4.4070
H        42.1490  -88.0270    4.0360
C        42.8050  -86.9500    5.7810
H        42.5100  -87.7280    6.4700
C        43.3910  -85.7740    6.2620
H        43.5470  -85.6440    7.3220
C        43.7720  -84.7650    5.3680
H        44.2240  -83.8570    5.7390
H        45.5490  -83.4229    1.6379

      48.199000     -86.506000      10.232000    0.02712681
      48.647000     -85.127000       9.843000    0.10632586
      47.026000     -85.654000       9.843000    0.16569629
      47.026000     -87.358000       9.843000    0.05199047
      48.975000     -84.117000       8.782000    0.08060219
      47.423000     -84.117000       8.782000    0.19928920
      46.167000     -85.030000       8.782000    0.12174654
      45.688000     -86.506000       8.782000    0.02072157
      49.238000     -88.808000       2.276000   -0.27817275
      46.895000     -83.606000       7.700000    0.13671618
      46.895000     -82.577000       6.400000   -0.13123435
      49.827000     -81.344000       4.846000    0.05606256
      48.299000     -81.344000       4.846000   -0.04098434
      49.827000     -81.344000       3.240000    0.03601862
      48.299000     -81.344000       3.240000   -0.06606021
      50.736000     -81.677000       5.376000    0.00860738
      49.966000     -84.264000       8.853000   -0.03958381
      49.202000     -82.941000       8.356000    0.00309827
      50.730000     -81.912000       7.056000   -0.03053015
      49.202000     -81.912000       7.056000   -0.03341844
      52.018000     -81.888000       5.852000    0.00599894
      53.254000     -85.693000       4.246000   -0.00288402
      49.513000     -88.055000       1.459000   -0.06577920
      52.806000     -86.346000       4.085000    0.04035628
      51.097000     -88.698000       2.479000   -0.05167805
      52.333000     -87.799000       2.479000    0.01043899
      51.097000     -87.670000       1.179000   -0.01055717
      48.348000     -84.234000       0.183000   -0.09981083
      47.584000     -85.558000       0.183000   -0.10913596
      48.348000     -86.881000       0.183000    0.08833918
      49.876000     -86.882000       0.183000    0.07909123
      49.112000     -85.558000      -0.314000    0.04992935
      53.227000     -85.950000       3.939000   -0.00053333
      53.228000     -83.048000       0.839000   -0.00861931
      50.194000     -85.841000      -0.296000    0.03315729
      50.969000     -84.499000      -0.711000   -0.03191402
      51.261000     -81.394000       2.582000   -0.00846372
      49.733000     -81.394000       2.582000   -0.01440472
      51.261000     -81.394000       0.976000    0.00460755
      49.733000     -81.394000       0.976000   -0.01503378
      48.497000     -82.293000       0.976000   -0.09503455
      51.261000     -82.423000      -0.324000    0.00055608
      49.733000     -82.423000      -0.324000   -0.00602963
      48.969000     -83.746000      -0.324000   -0.03577300
      50.497000     -83.746000      -0.821000   -0.01015897
      54.100000     -85.097000       2.580000   -0.03483275
      53.627000     -86.550000       2.580000   -0.01752507
      54.100000     -85.097000       0.974000   -0.00461362
      53.627000     -83.644000       0.974000   -0.01907958
      52.391000     -87.449000       0.974000   -0.00631476
      53.627000     -86.550000       0.974000   -0.00318919
      53.155000     -85.097000      -0.326000    0.00559359
      52.391000     -83.773000      -0.326000   -0.03117723
      50.863000     -86.420000      -0.326000    0.02614720
      52.391000     -86.421000      -0.326000    0.01118959
      51.627000     -85.097000      -0.823000   -0.00205588
      54.016000     -84.021000       3.975000   -0.01821053
      53.543000     -82.568000       3.975000    0.00143114
      52.307000     -81.669000       3.975000    0.01475427
      50.779000     -81.669000       3.975000    0.03647987
      53.543000     -85.474000       3.975000   -0.01997275
      53.543000     -82.568000       2.369000    0.00890026
      52.307000     -81.669000       2.369000   -0.00014488
      51.957000     -92.342000      10.431000   -0.04118693
      53.485000     -92.342000      10.431000   -0.03891892
      50.721000     -92.472000       9.131000   -0.10498633
      51.957000     -93.371000       9.131000    0.01176254
      53.485000     -93.371000       9.131000    0.04289190
      54.721000     -92.472000       9.131000   -0.02753887
      50.721000     -92.472000       7.525000   -0.13736763
      51.957000     -93.371000       7.525000   -0.02181270
      53.485000     -93.371000       7.525000    0.02692838
      54.721000     -92.472000       7.525000   -0.04123658
      51.957000     -92.342000       6.225000   -0.05725673
      53.485000     -92.342000       6.225000   -0.04269070
      55.109000     -89.933000      11.414000   -0.03757728
      52.817000     -91.256000      11.414000   -0.09115055
      54.345000     -91.257000      11.414000   -0.02527418
      56.054000     -89.933000      10.114000   -0.03534607
      55.581000     -88.480000      10.114000   -0.06519236
      54.345000     -92.285000      10.114000   -0.03030345
      55.581000     -91.386000      10.114000   -0.02077568
      56.054000     -89.933000       8.508000   -0.13485854
      55.581000     -91.386000       8.508000   -0.12081319
      55.825000     -89.592000       6.860000   -0.14713851
      55.352000     -91.045000       6.860000   -0.16478001
      54.880000     -89.592000       5.560000   -0.09928420
      54.116000     -88.269000       5.560000   -0.09416383
      54.116000     -90.916000       5.560000   -0.07786926
      51.073000     -89.904000      12.119000   -0.03520861
      49.545000     -89.904000      11.622000   -0.04547413
      50.309000     -91.227000      11.622000    0.03343004
      51.837000     -91.228000      11.622000   -0.02961473
      49.073000     -91.357000      10.322000   -0.03984624
      50.309000     -92.256000      10.322000   -0.00130206
      50.309000     -92.256000       8.716000   -0.13871255
      51.201000     -86.616000      12.170000   -0.01165884
      50.426000     -87.958000      12.170000   -0.03461930
      50.294000     -86.098000      11.777000    0.01108681
      49.530000     -87.421000      11.777000   -0.02766465
      50.294000     -85.069000      10.477000   -0.04594074
      49.058000     -85.968000      10.477000   -0.00231447
      52.492000     -88.123000      13.016000    0.02376006
      54.020000     -88.123000      12.519000   -0.00043914
      53.256000     -86.800000      12.519000   -0.00797118
      51.728000     -86.800000      12.519000    0.00042511
      50.964000     -88.123000      12.519000   -0.01420935
      51.728000     -89.446000      12.519000   -0.02949505
      53.256000     -89.447000      12.519000   -0.03121615
      54.965000     -88.123000      11.219000   -0.07111589
      56.219000     -87.700000       9.105000    0.04244654
      56.219000     -87.700000       7.499000    0.03080385
      55.274000     -87.700000       6.199000   -0.06633040
      53.355000     -85.606000      12.603000    0.04189472
      54.743000     -85.606000      12.286000    0.06295817
      54.049000     -84.404000      12.286000    0.06832412
      52.661000     -84.404000      12.286000    0.05174443
      51.967000     -85.606000      12.286000    0.00912182
      54.049000     -86.808000      12.286000   -0.00612507
      55.857000     -85.606000      11.398000    0.06858813
      55.379000     -84.135000      11.398000    0.05541544
      54.128000     -83.227000      11.398000    0.02362441
      52.582000     -83.227000      11.398000    0.02649426
      51.331000     -84.135000      11.398000    0.01845833
      55.379000     -87.077000      11.398000    0.01152204
      56.475000     -85.606000      10.115000    0.05628415
      56.117000     -84.156000      10.115000    0.01155573
      51.020000     -83.537000      10.115000   -0.00291001
      50.326000     -84.859000      10.115000   -0.05979420
      56.117000     -87.056000      10.115000    0.03562057
      56.475000     -85.606000       8.691000    0.02197092
      51.601000     -82.495000       9.504000   -0.00314756
      56.459000     -84.524000       7.954000   -0.00867583
      55.618000     -83.073000       6.404000   -0.02035107
      52.977000     -81.867000       6.404000   -0.01505796
      54.134000     -83.182000       5.269000   -0.00671904
      56.458000     -84.956000       7.988000    0.00015420
      56.458000     -84.956000       6.382000    0.04719891
      55.985000     -83.503000       6.382000    0.00937109
      55.985000     -86.409000       6.382000    0.01020521
      55.513000     -84.956000       5.082000    0.03167065
      54.749000     -83.632000       5.082000    0.01124056
      53.221000     -86.279000       5.082000   -0.06260138
      54.749000     -86.280000       5.082000   -0.03074575
      53.985000     -84.956000       4.585000   -0.01983586
      54.509000     -82.232000      10.331000   -0.02798483
      52.981000     -82.232000      10.331000   -0.03195485
      56.218000     -83.555000       9.031000   -0.03890655
      55.745000     -82.102000       9.031000   -0.01128999
      54.509000     -81.203000       9.031000   -0.00351239
      52.981000     -81.203000       9.031000   -0.00681369
      51.745000     -82.102000       9.031000   -0.00782910
      55.745000     -82.102000       7.425000   -0.01058250
      54.509000     -81.203000       7.425000   -0.00552415
      52.981000     -81.203000       7.425000   -0.00904284
      54.509000     -82.231000       6.125000   -0.02253903
      51.584000     -82.063000       6.782000   -0.01104366
      53.925000     -89.033000       5.012000    0.04901455
      53.446000     -87.557000       5.012000    0.00558560
      52.190000     -91.422000       5.012000    0.12706859
      53.446000     -90.509000       5.012000    0.08523086
      52.864000     -89.033000       3.951000    0.21590949
      52.139000     -90.289000       3.951000    0.23088279
      51.414000     -89.033000       3.562000    0.10421535
      49.145000     -89.006000      11.195000   -0.15885102
      48.381000     -87.683000      10.698000   -0.11810831
      47.617000     -89.006000      10.698000   -0.06626111
      48.381000     -90.329000      10.698000   -0.07977308
      50.667000     -89.125000       3.554000   -0.07686134
      44.312000     -90.187000       6.739000   -0.06793850
      46.917000     -89.186000      10.306000   -0.00469417
      46.153000     -87.863000       9.809000    0.05695308
      45.389000     -89.186000       9.809000    0.06422327
      46.153000     -90.509000       9.809000    0.04567366
      44.917000     -87.733000       8.509000   -0.06996929
      44.444000     -89.186000       8.509000    0.00512253
      44.634000     -90.583000       5.164000    0.01029150
      45.107000     -89.130000       3.864000    0.06965875
      48.299000     -91.263000       9.924000    0.00099619
      47.535000     -92.586000       9.427000    0.11777991
      49.063000     -92.587000       9.427000    0.08356205
      50.299000     -92.716000       8.127000   -0.05467396
      45.058000     -91.446000       9.051000   -0.03257345
      45.822000     -92.769000       9.051000   -0.00253416
      44.113000     -91.446000       7.751000   -0.07532950
      44.586000     -92.899000       7.751000   -0.05140544
      45.822000     -93.798000       7.751000   -0.02103477
      44.113000     -91.446000       6.145000   -0.07054357
      44.585000     -92.899000       6.145000   -0.03651102
      45.822000     -93.798000       6.145000   -0.01759908
      45.536000     -93.425000       5.234000    0.04725333
      44.705000     -90.618000       4.294000    0.05019594
      50.116000     -90.618000       2.844000   -0.02538546
      45.094000     -90.618000       2.844000    0.09213263
      45.573000     -92.094000       2.844000    0.10725836
      49.055000     -90.618000       1.783000   -0.02264988
      48.330000     -89.362000       1.783000   -0.05058857
      46.880000     -89.362000       1.783000    0.12467432
      46.155000     -90.618000       1.783000    0.10349415
      46.880000     -91.874000       1.783000    0.05503148
      47.605000     -90.618000       1.394000    0.05280898
      51.353000     -92.531000       5.017000    0.00410088
      46.195000     -94.487000       5.017000    0.04865790
      51.015000     -93.902000       5.017000   -0.06596747
      50.552000     -91.150000       3.542000    0.03462164
      45.952000     -93.251000       3.542000    0.07907332
      50.119000     -93.132000       7.870000   -0.00782615
      47.827000     -94.455000       7.870000    0.04566420
      49.355000     -94.456000       7.870000    0.03369611
      51.064000     -93.132000       6.570000   -0.06226796
      46.590000     -94.585000       6.570000    0.00868228
      47.827000     -95.484000       6.570000    0.02675581
      49.355000     -95.484000       6.570000    0.01041261
      50.591000     -94.585000       6.570000   -0.02015141
      47.827000     -95.484000       4.964000   -0.02234595
      49.355000     -95.484000       4.964000   -0.05171197
      50.591000     -94.585000       4.964000   -0.07611585
      51.090000     -92.806000       3.300000   -0.03315901
      50.617000     -91.353000       3.300000    0.00812641
      46.617000     -94.259000       3.300000    0.01686459
      47.853000     -95.158000       3.300000   -0.02378148
      49.381000     -95.158000       3.300000   -0.04818566
      50.617000     -94.259000       3.300000   -0.05360235
      50.145000     -92.806000       2.000000   -0.04120997
      49.381000     -91.482000       2.000000   -0.05452060
      47.089000     -92.806000       2.000000    0.00350093
      47.853000     -94.129000       2.000000   -0.01351639
      49.381000     -94.130000       2.000000   -0.03283719
      48.617000     -92.806000       1.503000   -0.03086073
      45.254000     -89.010000       3.043000    0.15712858
      44.672000     -87.975000       1.593000    0.04453079
      45.928000     -88.888000       1.593000    0.21226046
      47.480000     -88.888000       1.593000    0.11001181
      45.979000     -87.755000       0.532000    0.08403063
      47.429000     -87.755000       0.532000    0.15414564
      46.704000     -86.499000       0.143000   -0.09269323
      47.391000     -82.167000       5.980000   -0.14913948
      47.391000     -81.138000       4.680000   -0.11107763
      45.863000     -81.138000       4.680000   -0.19213788
      47.391000     -81.138000       3.074000   -0.06852708
      43.759000     -84.192000      -0.313000    0.04390119
      46.739000     -85.139000      -0.240000   -0.10143834
      43.683000     -85.139000      -0.240000   -0.13079455
      44.447000     -86.462000      -0.240000   -0.20389422
      45.975000     -86.463000      -0.240000   -0.15359991
      45.211000     -85.139000      -0.737000   -0.05058777
      41.650000     -81.789000       3.025000   -0.16586228
      43.588000     -81.188000       1.475000    0.10028464
      44.826000     -80.559000       4.359000   -0.10830311
      43.298000     -80.559000       4.359000   -0.08694364
      42.062000     -81.458000       4.359000   -0.08966692
      44.826000     -80.559000       2.753000    0.06098631
      43.298000     -80.559000       2.753000   -0.03169762
      41.215000     -82.290000       3.069000   -0.14320340
      40.742000     -83.743000       3.069000   -0.07314085
      42.451000     -81.391000       1.463000   -0.05372487
      41.215000     -82.290000       1.463000   -0.11738644
      40.742000     -83.743000       1.463000   -0.12518664
      42.451000     -82.419000       0.163000   -0.00493102
      41.687000     -83.743000       0.163000   -0.10160948
      42.451000     -85.066000       0.163000   -0.15448978
      43.215000     -83.743000      -0.334000    0.02825291
      40.559000     -84.192000       3.993000    0.07976637
      39.973000     -85.370000       3.513000    0.11655224
      40.407000     -85.356000       1.963000    0.03362501
      44.098000     -88.554000       1.963000    0.03556561
      40.826000     -84.790000       1.650000   -0.08820235
      40.353000     -86.243000       1.650000    0.06501561
      40.826000     -87.696000       1.650000    0.01594543
      43.590000     -88.595000       1.650000   -0.00334708
      41.298000     -86.243000       0.350000    0.02049343
      42.062000     -87.566000       0.350000    0.02573998
      43.590000     -87.566000       0.350000   -0.06013128
      42.826000     -86.243000      -0.147000   -0.07444511
      39.591000     -86.377000       4.407000    0.07715997
      44.362000     -89.670000       4.407000   -0.04173878
      40.148000     -89.480000       4.839000   -0.03693016
      41.385000     -90.379000       4.839000   -0.06761612
      42.913000     -90.379000       4.839000   -0.10815777
      39.676000     -88.027000       3.233000    0.01545895
      40.148000     -89.480000       3.233000   -0.01013667
      41.385000     -90.379000       3.233000   -0.03816563
      42.913000     -90.379000       3.233000   -0.05822682
      40.621000     -88.027000       1.933000    0.00377418
      41.385000     -89.350000       1.933000   -0.01742686
      42.913000     -89.351000       1.933000   -0.02959885
      40.229000     -86.194000       7.331000   -0.00352081
      39.795000     -86.208000       5.781000    0.02877838
      39.795000     -87.692000       5.781000   -0.01325805
      42.510000     -87.728000       9.070000   -0.03978176
      40.982000     -87.728000       8.573000    0.05228976
      41.746000     -89.051000       8.573000    0.08665708
      43.274000     -89.051000       8.573000    0.01102257
      40.037000     -87.728000       7.273000    0.05304437
      40.509000     -89.181000       7.273000    0.08989848
      41.746000     -90.080000       7.273000    0.06514272
      43.274000     -90.080000       7.273000   -0.01297425
      41.746000     -90.080000       5.667000   -0.07696739
      43.274000     -90.080000       5.667000   -0.10171216
      41.633000     -83.745000       7.812000    0.03170999
      40.815000     -85.018000       7.812000   -0.00952971
      40.381000     -85.032000       6.262000    0.04177126
      43.547000     -85.644000       9.922000   -0.06084790
      45.075000     -85.644000       9.425000   -0.04402546
      44.311000     -84.321000       9.425000   -0.03929891
      42.783000     -84.321000       9.425000   -0.03109390
      42.019000     -85.644000       9.425000   -0.05751869
      42.783000     -86.967000       9.425000   -0.09015605
      44.311000     -86.967000       9.425000   -0.09280596
      45.547000     -84.191000       8.125000   -0.01442704
      42.783000     -83.292000       8.125000    0.00357813
      42.014000     -82.736000       6.918000    0.10123813
      41.452000     -82.709000       5.368000    0.07808252
      40.762000     -84.023000       5.368000    0.12081434
      45.752000     -83.857000       7.842000    0.00897966
      44.988000     -82.534000       7.842000    0.01544850
      43.460000     -82.534000       7.842000    0.04723199
      46.224000     -82.404000       6.542000   -0.13832797
      44.988000     -81.505000       6.542000   -0.05374645
      43.460000     -81.505000       6.542000    0.02059240
      46.313000     -81.071000       2.441000    0.12316768
      48.022000     -83.423000       0.835000   -0.20444116
      47.549000     -81.970000       0.835000    0.09830448
      46.313000     -81.071000       0.835000    0.29672454
      44.785000     -81.071000       0.835000    0.33339154
      47.077000     -83.423000      -0.465000    0.15839661
      46.313000     -82.099000      -0.465000    0.31904291
      44.785000     -82.099000      -0.465000    0.35592910
      44.021000     -83.423000      -0.465000    0.21201974
      45.549000     -83.423000      -0.962000    0.27189013

  1 0
S   5   1.00
      0.124320D+04           0.603366D-02
      0.187145D+03           0.449576D-01
      0.425126D+02           0.197901D+00
      0.117393D+02           0.500000D+00
      0.350548D+01           0.480364D+00
S   2   1.00
      0.539089D+01          -0.703980D-01
      0.493341D+00           0.500000D+00
S   1   1.00
      0.149741D+00           1.0000000
P   3   1.00
      0.596736D+02           0.629939D-02
      0.918056D+01           0.924897D-01
      0.193658D+01           0.500000D+00
P   1   1.00
      0.526296D+00           1.0000000
P   1   1.00
      0.136319D+00           1.0000000
D   1   1.00
      0.800000D+00           1.0000000
****
  2 0
S   5   1.00
      0.228864D+04           0.585468D-02
      0.344416D+03           0.437333D-01
      0.782538D+02           0.194796D+00
      0.217195D+02           0.500000D+00
      0.655907D+01           0.484614D+00
S   2   1.00
      0.104656D+02          -0.713343D-01
      0.964351D+00           0.500000D+00
S   1   1.00
      0.285127D+00           1.0000000
P   3   1.00
      0.110884D+03           0.627538D-02
      0.170590D+02           0.943170D-01
      0.368999D+01           0.500000D+00
P   1   1.00
      0.992996D+00           1.0000000
P   1   1.00
      0.244924D+00           1.0000000
D   1   1.00
      0.100000D+01           1.0000000
****
  3 0
S   5   1.00
      0.172632D+04           0.593077D-02
      0.259827D+03           0.442539D-01
      0.590335D+02           0.196096D+00
      0.163509D+02           0.500000D+00
      0.491084D+01           0.482987D+00
S   2   1.00
      0.775894D+01          -0.703356D-01
      0.705573D+00           0.500000D+00
S   1   1.00
      0.209286D+00           1.0000000
P   3   1.00
      0.856986D+02           0.615630D-02
      0.131844D+02           0.922010D-01
      0.281860D+01           0.500000D+00
P   1   1.00
      0.765571D+00           1.0000000
P   1   1.00
      0.195949D+00           1.0000000
D   1   1.00
      0.900000D+00           1.0000000
****
  4 0
S   3   1.00
      0.122518D+02           0.233371D-01
      0.186871D+01           0.159150D+00
      0.418208D+00           0.500000D+00
S   1   1.00
      0.106100D+00           1.0000000
P   2   1.00
      0.900000D+01           0.203780D-01
      0.100000D+01           0.500000D+00
****
  5 0
S   5   1.00
      0.124320D+04           0.603366D-02
      0.187145D+03           0.449576D-01
      0.425126D+02           0.197901D+00
      0.117393D+02           0.500000D+00
      0.350548D+01           0.480364D+00
S   2   1.00
      0.539089D+01          -0.703980D-01
      0.493341D+00           0.500000D+00
S   1   1.00
      0.149741D+00           1.0000000
P   3   1.00
      0.596736D+02           0.629939D-02
      0.918056D+01           0.924897D-01
      0.193658D+01           0.500000D+00
P   1   1.00
      0.526296D+00           1.0000000
P   1   1.00
      0.136319D+00           1.0000000
D   1   1.00
      0.800000D+00           1.0000000
****
  6 0
S   3   1.00
      0.122518D+02           0.233371D-01
      0.186871D+01           0.159150D+00
      0.418208D+00           0.500000D+00
S   1   1.00
      0.106100D+00           1.0000000
P   2   1.00
      0.900000D+01           0.203780D-01
      0.100000D+01           0.500000D+00
****
  7 0
S   5   1.00
      0.124320D+04           0.603366D-02
      0.187145D+03           0.449576D-01
      0.425126D+02           0.197901D+00
      0.117393D+02           0.500000D+00
      0.350548D+01           0.480364D+00
S   2   1.00
      0.539089D+01          -0.703980D-01
      0.493341D+00           0.500000D+00
S   1   1.00
      0.149741D+00           1.0000000
P   3   1.00
      0.596736D+02           0.629939D-02
      0.918056D+01           0.924897D-01
      0.193658D+01           0.500000D+00
P   1   1.00
      0.526296D+00           1.0000000
P   1   1.00
      0.136319D+00           1.0000000
D   1   1.00
      0.800000D+00           1.0000000
****
  8 0
S   3   1.00
      0.122518D+02           0.233371D-01
      0.186871D+01           0.159150D+00
      0.418208D+00           0.500000D+00
S   1   1.00
      0.106100D+00           1.0000000
P   2   1.00
      0.900000D+01           0.203780D-01
      0.100000D+01           0.500000D+00
****
  9 0
S   5   1.00
      0.124320D+04           0.603366D-02
      0.187145D+03           0.449576D-01
      0.425126D+02           0.197901D+00
      0.117393D+02           0.500000D+00
      0.350548D+01           0.480364D+00
S   2   1.00
      0.539089D+01          -0.703980D-01
      0.493341D+00           0.500000D+00
S   1   1.00
      0.149741D+00           1.0000000
P   3   1.00
      0.596736D+02           0.629939D-02
      0.918056D+01           0.924897D-01
      0.193658D+01           0.500000D+00
P   1   1.00
      0.526296D+00           1.0000000
P   1   1.00
      0.136319D+00           1.0000000
D   1   1.00
      0.800000D+00           1.0000000
****
 10 0
S   3   1.00
      0.122518D+02           0.233371D-01
      0.186871D+01           0.159150D+00
      0.418208D+00           0.500000D+00
S   1   1.00
      0.106100D+00           1.0000000
P   2   1.00
      0.900000D+01           0.203780D-01
      0.100000D+01           0.500000D+00
****
 11 0
S   3   1.00
      0.122518D+02           0.233371D-01
      0.186871D+01           0.159150D+00
      0.418208D+00           0.500000D+00
S   1   1.00
      0.106100D+00           1.0000000
P   2   1.00
      0.900000D+01           0.203780D-01
      0.100000D+01           0.500000D+00
****
 12 0
S   3   1.00
      0.122518D+02           0.233371D-01
      0.186871D+01           0.159150D+00
      0.418208D+00           0.500000D+00
S   1   1.00
      0.106100D+00           1.0000000
P   2   1.00
      0.900000D+01           0.203780D-01
      0.100000D+01           0.500000D+00
****
 13 0
S   5   1.00
      0.124320D+04           0.603366D-02
      0.187145D+03           0.449576D-01
      0.425126D+02           0.197901D+00
      0.117393D+02           0.500000D+00
      0.350548D+01           0.480364D+00
S   2   1.00
      0.539089D+01          -0.703980D-01
      0.493341D+00           0.500000D+00
S   1   1.00
      0.149741D+00           1.0000000
P   3   1.00
      0.596736D+02           0.629939D-02
      0.918056D+01           0.924897D-01
      0.193658D+01           0.500000D+00
P   1   1.00
      0.526296D+00           1.0000000
P   1   1.00
      0.136319D+00           1.0000000
D   1   1.00
      0.800000D+00           1.0000000
****
 14 0
S   3   1.00
      0.122518D+02           0.233371D-01
      0.186871D+01           0.159150D+00
      0.418208D+00           0.500000D+00
S   1   1.00
      0.106100D+00           1.0000000
P   2   1.00
      0.900000D+01           0.203780D-01
      0.100000D+01           0.500000D+00
****
 15 0
S   3   1.00
      0.122518D+02           0.233371D-01
      0.186871D+01           0.159150D+00
      0.418208D+00           0.500000D+00
S   1   1.00
      0.106100D+00           1.0000000
P   2   1.00
      0.900000D+01           0.203780D-01
      0.100000D+01           0.500000D+00
****
 16 0
S   5   1.00
      0.124320D+04           0.603366D-02
      0.187145D+03           0.449576D-01